DIMACS_lns/graph-1000-597.col
p edge 1000 1828
e 1 619
e 1 984
e 1 964
e 2 683
e 2 755
e 2 879
e 2 284
e 2 136
e 2 617
e 2 363
e 2 662
e 5 240
e 5 828
e 5 760
e 6 974
e 6 240
e 6 50
e 7 653
e 7 568
e 7 246
e 7 32
e 8 320
e 8 526
e 8 906
e 8 323
e 10 360
e 10 92
e 10 467
e 10 937
e 11 225
e 11 353
e 11 383
e 12 383
e 12 704
e 12 858
e 12 727
e 12 689
e 12 654
e 13 452
e 13 716
e 13 991
e 14 266
e 14 74
e 14 275
e 14 326
e 15 354
e 15 942
e 15 855
e 15 403
e 15 372
e 17 413
e 17 503
e 17 303
e 17 458
e 18 716
e 18 407
e 18 384
e 18 135
e 19 737
e 19 941
e 19 530
e 20 142
e 20 268
e 20 279
e 20 73
e 22 180
e 22 463
e 22 420
e 22 692
e 22 381
e 22 69
e 22 161
e 22 913
e 24 240
e 24 460
e 24 513
e 24 131
e 24 421
e 24 355
e 24 917
e 24 167
e 26 584
e 26 330
e 26 180
e 26 908
e 26 384
e 30 800
e 30 517
e 30 893
e 30 260
e 30 863
e 30 105
e 30 745
e 31 901
e 31 757
e 31 254
e 31 61
e 31 458
e 32 371
e 32 886
e 32 141
e 32 179
e 33 338
e 33 283
e 33 819
e 35 424
e 35 371
e 35 675
e 35 154
e 35 376
e 36 887
e 36 140
e 36 871
e 36 524
e 36 507
e 37 492
e 37 603
e 37 694
e 37 638
e 38 499
e 38 525
e 38 388
e 38 624
e 40 368
e 40 243
e 40 993
e 40 303
e 40 227
e 42 823
e 42 232
e 42 607
e 43 272
e 43 583
e 43 692
e 43 533
e 45 245
e 45 216
e 45 90
e 45 753
e 45 338
e 45 210
e 45 510
e 45 812
e 45 367
e 45 901
e 47 251
e 47 536
e 47 171
e 47 161
e 48 132
e 48 438
e 48 821
e 48 165
e 49 72
e 49 982
e 49 337
e 49 630
e 49 260
e 49 608
e 50 91
e 50 341
e 50 621
e 50 873
e 50 612
e 50 714
e 50 741
e 51 435
e 51 702
e 51 646
e 52 373
e 52 322
e 52 579
e 52 705
e 53 931
e 53 753
e 53 993
e 53 518
e 53 994
e 53 146
e 54 651
e 54 648
e 54 223
e 55 288
e 55 791
e 55 930
e 55 265
e 55 156
e 56 79
e 56 268
e 56 263
e 56 535
e 56 89
e 56 576
e 56 341
e 56 826
e 57 582
e 57 429
e 57 246
e 58 937
e 58 63
e 58 952
e 58 181
e 58 75
e 59 121
e 59 139
e 59 516
e 59 686
e 59 497
e 59 828
e 59 388
e 61 733
e 61 602
e 61 131
e 61 771
e 63 820
e 63 632
e 63 621
e 63 790
e 63 876
e 64 224
e 64 569
e 64 754
e 64 613
e 64 530
e 64 338
e 64 711
e 64 833
e 65 321
e 65 757
e 65 805
e 65 296
e 65 305
e 66 195
e 66 846
e 66 351
e 66 946
e 66 71
e 66 76
e 66 487
e 67 352
e 67 629
e 67 860
e 67 787
e 67 478
e 69 748
e 69 316
e 69 249
e 69 181
e 69 743
e 69 973
e 69 178
e 69 903
e 70 134
e 70 703
e 70 828
e 71 557
e 71 643
e 71 101
e 71 955
e 72 797
e 72 163
e 72 933
e 73 130
e 73 236
e 73 215
e 73 80
e 74 366
e 74 197
e 74 862
e 75 758
e 75 637
e 75 800
e 75 825
e 75 82
e 76 508
e 76 798
e 76 364
e 76 269
e 76 85
e 76 522
e 77 429
e 77 521
e 77 261
e 77 598
e 79 902
e 79 576
e 79 360
e 79 998
e 79 109
e 80 809
e 80 893
e 80 940
e 80 218
e 80 786
e 81 360
e 81 931
e 81 288
e 81 224
e 81 635
e 82 838
e 82 791
e 82 902
e 82 414
e 82 464
e 82 942
e 82 630
e 82 88
e 83 750
e 83 176
e 83 485
e 84 963
e 84 508
e 84 687
e 84 770
e 84 788
e 84 408
e 85 115
e 85 513
e 85 454
e 85 168
e 85 499
e 86 536
e 86 808
e 86 679
e 86 146
e 86 183
e 86 629
e 86 405
e 87 384
e 87 449
e 87 680
e 87 275
e 88 192
e 88 571
e 88 446
e 88 925
e 88 298
e 89 201
e 89 646
e 89 987
e 89 899
e 90 119
e 90 191
e 90 370
e 90 577
e 90 576
e 91 373
e 91 134
e 92 924
e 92 378
e 92 101
e 92 617
e 92 790
e 92 493
e 93 993
e 93 102
e 93 100
e 96 177
e 96 425
e 96 247
e 96 186
e 100 844
e 100 553
e 100 170
e 100 727
e 101 836
e 101 960
e 102 907
e 102 434
e 102 778
e 103 621
e 103 491
e 103 238
e 103 115
e 104 924
e 104 683
e 104 533
e 105 577
e 105 979
e 105 826
e 105 877
e 105 240
e 105 299
e 107 309
e 107 825
e 107 497
e 108 778
e 108 161
e 108 673
e 109 354
e 109 114
e 110 181
e 110 502
e 110 527
e 110 342
e 110 949
e 110 465
e 110 741
e 110 486
e 114 374
e 114 981
e 114 689
e 114 227
e 114 570
e 115 135
e 115 343
e 116 202
e 116 543
e 116 316
e 116 836
e 117 969
e 117 434
e 117 573
e 117 679
e 117 643
e 117 805
e 119 270
e 119 700
e 119 490
e 119 315
e 121 179
e 121 922
e 121 927
e 123 441
e 123 301
e 123 760
e 123 261
e 123 727
e 123 804
e 125 521
e 125 704
e 125 828
e 125 629
e 125 765
e 128 510
e 128 852
e 128 601
e 129 184
e 129 313
e 129 389
e 129 998
e 130 531
e 130 571
e 130 283
e 130 568
e 130 140
e 130 264
e 131 452
e 131 511
e 131 292
e 131 370
e 131 961
e 131 163
e 132 997
e 132 589
e 132 485
e 132 721
e 133 514
e 133 357
e 133 887
e 133 322
e 134 753
e 134 703
e 134 257
e 134 987
e 135 560
e 135 887
e 135 831
e 135 575
e 136 386
e 136 823
e 136 715
e 136 641
e 138 387
e 138 239
e 138 345
e 138 377
e 138 414
e 139 378
e 139 829
e 139 507
e 139 754
e 140 315
e 141 453
e 141 421
e 141 827
e 142 723
e 142 617
e 142 736
e 142 758
e 146 927
e 146 220
e 146 858
e 146 805
e 146 150
e 147 529
e 147 502
e 147 376
e 147 374
e 147 793
e 147 923
e 148 599
e 148 397
e 148 721
e 149 336
e 149 673
e 149 638
e 149 343
e 149 168
e 149 979
e 150 258
e 150 574
e 151 565
e 151 182
e 151 735
e 152 980
e 152 871
e 152 496
e 152 293
e 152 846
e 154 444
e 154 990
e 154 918
e 154 961
e 156 755
e 156 351
e 158 723
e 158 591
e 158 930
e 158 704
e 159 447
e 159 980
e 159 613
e 159 165
e 161 471
e 161 734
e 162 532
e 162 894
e 162 911
e 162 597
e 163 508
e 163 326
e 163 592
e 165 928
e 165 760
e 165 259
e 166 741
e 166 180
e 166 927
e 167 452
e 167 342
e 167 697
e 167 365
e 167 683
e 168 303
e 168 816
e 169 902
e 169 832
e 169 909
e 169 791
e 169 778
e 169 790
e 170 856
e 170 343
e 170 440
e 171 635
e 171 636
e 172 741
e 172 546
e 172 263
e 172 401
e 172 709
e 174 630
e 174 906
e 174 740
e 174 886
e 174 705
e 175 590
e 175 321
e 175 507
e 176 398
e 176 831
e 177 201
e 177 695
e 178 511
e 178 956
e 178 593
e 178 965
e 179 839
e 179 408
e 179 277
e 180 818
e 180 644
e 180 412
e 181 420
e 181 425
e 181 196
e 182 378
e 182 893
e 183 737
e 183 325
e 183 863
e 184 644
e 184 204
e 186 595
e 186 775
e 186 570
e 186 464
e 186 741
e 186 429
e 186 258
e 186 471
e 187 474
e 187 872
e 187 257
e 187 680
e 187 740
e 188 594
e 188 635
e 188 454
e 188 260
e 189 201
e 189 916
e 189 299
e 189 249
e 189 852
e 191 568
e 191 682
e 192 891
e 192 748
e 194 907
e 194 560
e 194 196
e 194 797
e 195 948
e 195 363
e 195 835
e 195 542
e 196 545
e 196 312
e 197 699
e 197 655
e 197 969
e 197 361
e 197 958
e 199 458
e 199 269
e 199 950
e 199 949
e 199 595
e 199 775
e 201 779
e 201 794
e 201 424
e 202 508
e 202 425
e 202 973
e 203 389
e 203 441
e 203 466
e 204 665
e 204 857
e 204 543
e 204 663
e 204 441
e 204 223
e 204 759
e 205 913
e 205 765
e 205 224
e 207 680
e 207 705
e 207 290
e 208 771
e 208 525
e 208 736
e 210 853
e 210 432
e 210 805
e 210 336
e 215 878
e 215 988
e 216 592
e 216 782
e 218 225
e 218 540
e 219 342
e 219 736
e 219 799
e 220 695
e 220 976
e 221 314
e 221 694
e 221 949
e 221 357
e 222 616
e 222 642
e 222 801
e 222 301
e 222 676
e 222 231
e 223 632
e 223 326
e 224 254
e 225 446
e 225 822
e 225 965
e 225 506
e 225 682
e 225 776
e 227 872
e 227 935
e 227 610
e 227 543
e 227 461
e 228 589
e 228 797
e 228 994
e 228 467
e 228 272
e 229 444
e 229 903
e 229 976
e 229 467
e 229 435
e 229 322
e 229 787
e 229 934
e 231 413
e 231 865
e 232 394
e 232 688
e 234 488
e 234 712
e 234 831
e 236 517
e 236 745
e 236 940
e 236 884
e 236 407
e 236 298
e 237 776
e 237 529
e 237 833
e 238 394
e 238 946
e 238 305
e 239 786
e 239 938
e 240 412
e 240 249
e 240 351
e 243 794
e 243 931
e 243 279
e 245 921
e 245 868
e 245 260
e 245 411
e 245 359
e 245 490
e 246 426
e 246 353
e 246 647
e 247 983
e 247 712
e 249 741
e 249 672
e 249 327
e 250 523
e 250 454
e 250 270
e 250 555
e 250 403
e 251 423
e 251 546
e 251 457
e 251 932
e 254 884
e 254 952
e 254 433
e 254 927
e 256 579
e 256 485
e 256 542
e 256 564
e 256 640
e 256 413
e 256 943
e 257 936
e 257 672
e 258 941
e 258 335
e 258 522
e 258 986
e 259 827
e 259 486
e 259 770
e 259 629
e 259 395
e 260 948
e 260 707
e 260 421
e 261 482
e 261 553
e 261 495
e 261 789
e 261 321
e 262 912
e 262 492
e 262 737
e 263 707
e 263 996
e 263 422
e 263 335
e 264 769
e 264 788
e 265 995
e 265 514
e 265 405
e 266 939
e 266 862
e 266 583
e 266 422
e 267 407
e 267 988
e 267 317
e 267 849
e 268 684
e 268 793
e 268 704
e 269 634
e 269 857
e 269 718
e 269 937
e 270 619
e 270 758
e 270 950
e 271 760
e 271 398
e 271 672
e 271 628
e 272 957
e 272 680
e 274 553
e 274 446
e 274 722
e 274 782
e 275 807
e 275 978
e 277 585
e 277 457
e 277 777
e 278 540
e 278 338
e 278 685
e 279 969
e 279 533
e 279 822
e 279 425
e 279 589
e 282 948
e 282 935
e 282 834
e 283 708
e 283 793
e 284 294
e 284 288
e 284 841
e 284 759
e 284 745
e 285 480
e 285 470
e 285 798
e 285 615
e 286 417
e 286 938
e 286 630
e 288 347
e 288 787
e 288 633
e 288 525
e 290 858
e 290 896
e 292 384
e 292 436
e 292 699
e 293 589
e 293 860
e 293 678
e 293 675
e 294 360
e 294 663
e 294 635
e 294 349
e 294 359
e 294 370
e 295 935
e 295 951
e 295 347
e 296 665
e 296 642
e 296 403
e 296 300
e 296 655
e 296 580
e 298 807
e 298 581
e 299 388
e 299 912
e 299 601
e 300 864
e 300 627
e 301 777
e 301 474
e 303 994
e 303 399
e 303 580
e 305 420
e 305 878
e 305 801
e 309 757
e 309 764
e 309 899
e 309 863
e 310 862
e 310 457
e 310 988
e 311 523
e 311 572
e 311 603
e 311 328
e 311 584
e 311 513
e 311 906
e 312 718
e 312 872
e 312 771
e 312 866
e 312 355
e 313 888
e 313 587
e 313 532
e 313 343
e 313 922
e 314 964
e 314 331
e 314 954
e 314 741
e 315 817
e 315 422
e 316 553
e 317 585
e 317 730
e 317 574
e 317 343
e 320 729
e 320 527
e 320 325
e 321 804
e 321 591
e 321 805
e 321 502
e 322 859
e 322 434
e 322 572
e 322 946
e 322 357
e 322 892
e 323 353
e 323 366
e 323 904
e 323 838
e 323 784
e 324 854
e 324 733
e 324 981
e 325 902
e 326 536
e 326 965
e 326 526
e 326 382
e 326 615
e 326 338
e 326 828
e 327 537
e 327 462
e 327 845
e 328 983
e 328 457
e 328 359
e 330 938
e 330 943
e 330 828
e 331 541
e 331 896
e 331 627
e 335 373
e 336 560
e 336 643
e 336 908
e 336 923
e 337 421
e 337 482
e 337 876
e 337 878
e 337 994
e 338 458
e 338 789
e 338 513
e 339 633
e 339 866
e 339 963
e 340 643
e 340 874
e 340 478
e 340 806
e 341 438
e 342 778
e 342 801
e 342 939
e 342 745
e 342 540
e 342 889
e 343 953
e 343 365
e 343 832
e 343 757
e 344 675
e 344 855
e 344 525
e 344 570
e 344 536
e 344 587
e 345 643
e 345 515
e 345 954
e 345 560
e 345 999
e 345 673
e 347 549
e 347 702
e 347 808
e 349 983
e 349 602
e 350 383
e 350 471
e 350 927
e 351 380
e 351 778
e 351 661
e 352 933
e 352 892
e 354 946
e 354 640
e 354 574
e 354 573
e 355 928
e 355 825
e 357 606
e 357 877
e 357 937
e 359 648
e 359 827
e 359 729
e 360 896
e 360 395
e 360 973
e 361 686
e 361 478
e 363 777
e 363 613
e 363 549
e 363 820
e 363 525
e 364 855
e 364 609
e 365 794
e 365 964
e 365 753
e 365 963
e 365 651
e 366 734
e 366 572
e 366 414
e 366 527
e 367 537
e 367 879
e 368 791
e 368 665
e 369 849
e 369 606
e 369 791
e 369 719
e 369 764
e 370 440
e 370 531
e 370 465
e 371 458
e 371 629
e 371 687
e 372 839
e 372 991
e 372 538
e 372 712
e 373 758
e 373 750
e 373 956
e 374 951
e 375 703
e 375 887
e 375 565
e 376 543
e 376 609
e 376 762
e 377 854
e 377 806
e 377 865
e 377 967
e 378 591
e 378 704
e 380 693
e 380 643
e 381 958
e 381 695
e 381 382
e 381 872
e 382 714
e 382 798
e 383 640
e 383 637
e 384 689
e 384 482
e 386 719
e 386 443
e 386 741
e 387 954
e 387 680
e 387 779
e 388 857
e 388 823
e 389 453
e 389 629
e 390 412
e 390 688
e 390 446
e 390 839
e 390 461
e 391 545
e 391 703
e 391 902
e 393 932
e 393 755
e 393 946
e 393 558
e 393 829
e 393 877
e 393 976
e 393 879
e 394 633
e 394 581
e 394 648
e 394 917
e 394 485
e 394 398
e 395 680
e 395 506
e 396 807
e 396 682
e 396 895
e 396 754
e 396 794
e 396 603
e 397 776
e 397 425
e 397 526
e 398 609
e 398 434
e 398 643
e 399 602
e 399 711
e 399 593
e 401 543
e 401 952
e 401 779
e 403 546
e 405 609
e 405 606
e 405 576
e 405 913
e 407 819
e 407 687
e 407 524
e 407 857
e 407 510
e 408 793
e 411 933
e 411 412
e 412 941
e 413 817
e 413 913
e 413 415
e 414 606
e 414 655
e 415 771
e 415 924
e 415 868
e 415 702
e 416 444
e 416 974
e 416 904
e 417 843
e 417 592
e 420 760
e 420 700
e 420 769
e 420 687
e 421 969
e 421 593
e 421 961
e 421 789
e 422 750
e 422 503
e 423 876
e 423 495
e 423 955
e 423 558
e 424 433
e 424 856
e 424 876
e 424 474
e 425 549
e 425 966
e 426 695
e 426 727
e 428 965
e 428 934
e 428 809
e 428 682
e 428 871
e 429 644
e 432 559
e 432 465
e 433 933
e 433 811
e 434 665
e 434 523
e 434 719
e 434 990
e 434 705
e 435 778
e 435 647
e 436 716
e 436 808
e 436 540
e 438 764
e 438 722
e 440 765
e 440 935
e 440 628
e 441 821
e 441 581
e 441 470
e 441 902
e 443 801
e 443 490
e 443 680
e 444 966
e 444 854
e 444 804
e 446 533
e 446 877
e 446 621
e 447 582
e 447 934
e 447 458
e 449 718
e 449 929
e 452 931
e 452 665
e 452 955
e 452 476
e 452 812
e 453 819
e 454 457
e 454 997
e 457 480
e 457 718
e 458 555
e 458 553
e 458 488
e 458 948
e 458 909
e 460 994
e 460 572
e 461 541
e 461 687
e 461 850
e 462 830
e 462 949
e 462 525
e 463 777
e 463 508
e 464 672
e 464 873
e 465 602
e 466 568
e 466 717
e 466 932
e 467 508
e 467 543
e 467 932
e 467 875
e 467 765
e 467 478
e 467 800
e 470 929
e 471 522
e 474 830
e 474 684
e 474 476
e 474 487
e 476 651
e 478 739
e 478 645
e 480 873
e 480 654
e 480 784
e 482 888
e 482 541
e 482 964
e 484 698
e 484 670
e 484 826
e 485 597
e 485 907
e 485 820
e 486 886
e 486 885
e 486 803
e 486 765
e 487 940
e 487 499
e 487 496
e 488 939
e 488 953
e 490 794
e 491 715
e 491 698
e 491 642
e 491 530
e 492 549
e 492 913
e 492 799
e 492 863
e 493 922
e 493 804
e 493 735
e 495 757
e 495 849
e 495 583
e 496 776
e 496 576
e 497 990
e 497 705
e 499 701
e 499 986
e 502 901
e 502 872
e 502 984
e 503 540
e 503 585
e 503 948
e 506 619
e 506 597
e 507 843
e 507 730
e 507 874
e 508 849
e 508 682
e 508 632
e 508 955
e 508 511
e 510 632
e 510 515
e 510 653
e 510 784
e 510 997
e 514 624
e 514 996
e 515 909
e 515 999
e 515 670
e 516 831
e 516 647
e 516 952
e 517 739
e 517 617
e 517 830
e 517 818
e 517 559
e 518 866
e 518 590
e 519 933
e 519 995
e 519 868
e 520 793
e 520 815
e 520 748
e 521 790
e 521 526
e 522 716
e 523 617
e 524 782
e 524 709
e 524 789
e 524 641
e 525 581
e 525 815
e 525 612
e 526 892
e 526 971
e 527 616
e 527 745
e 529 547
e 529 583
e 529 718
e 530 839
e 530 701
e 531 852
e 531 590
e 531 925
e 532 610
e 532 827
e 532 679
e 532 765
e 532 843
e 532 645
e 533 960
e 533 599
e 535 966
e 535 857
e 536 818
e 536 577
e 537 855
e 538 789
e 538 892
e 540 843
e 540 779
e 540 762
e 540 834
e 542 952
e 542 569
e 542 888
e 543 826
e 543 597
e 543 862
e 543 610
e 545 665
e 545 633
e 546 906
e 546 886
e 547 801
e 547 793
e 548 935
e 548 782
e 548 964
e 548 844
e 549 809
e 555 715
e 555 684
e 555 721
e 557 831
e 557 841
e 557 803
e 558 794
e 558 599
e 559 889
e 564 782
e 564 884
e 565 925
e 565 941
e 565 939
e 565 598
e 568 911
e 568 859
e 569 991
e 569 925
e 570 968
e 570 801
e 571 829
e 571 575
e 571 584
e 572 955
e 572 807
e 572 971
e 572 950
e 572 714
e 573 683
e 574 764
e 575 825
e 576 875
e 577 784
e 579 962
e 579 850
e 580 968
e 580 996
e 580 589
e 580 925
e 581 647
e 582 764
e 583 972
e 586 670
e 586 885
e 586 770
e 587 987
e 589 730
e 589 972
e 589 804
e 590 685
e 591 717
e 592 722
e 592 765
e 592 891
e 592 602
e 594 604
e 594 862
e 595 946
e 595 982
e 597 776
e 598 909
e 598 699
e 598 615
e 599 602
e 599 816
e 601 644
e 602 856
e 602 693
e 603 675
e 603 727
e 604 991
e 604 852
e 606 694
e 606 885
e 607 798
e 607 740
e 607 671
e 608 921
e 608 644
e 609 872
e 609 633
e 609 831
e 609 887
e 612 948
e 613 769
e 613 757
e 613 875
e 616 809
e 617 978
e 617 694
e 617 704
e 617 987
e 617 848
e 619 645
e 619 768
e 621 751
e 621 910
e 624 788
e 624 839
e 627 647
e 627 888
e 628 820
e 630 649
e 633 835
e 634 969
e 634 817
e 634 778
e 634 994
e 635 807
e 635 701
e 636 889
e 636 719
e 637 858
e 637 725
e 638 655
e 638 899
e 638 856
e 641 923
e 641 689
e 642 928
e 642 806
e 643 779
e 644 938
e 644 743
e 645 879
e 645 936
e 646 782
e 646 978
e 646 938
e 649 866
e 649 950
e 651 917
e 652 913
e 652 923
e 652 949
e 652 845
e 653 707
e 653 823
e 654 782
e 655 794
e 655 716
e 655 708
e 661 852
e 661 796
e 662 918
e 662 865
e 662 986
e 663 756
e 665 960
e 670 884
e 670 968
e 670 886
e 671 856
e 671 693
e 671 981
e 672 887
e 673 893
e 673 863
e 675 846
e 676 830
e 676 806
e 676 903
e 678 791
e 678 692
e 679 805
e 679 940
e 679 816
e 680 841
e 680 683
e 684 953
e 685 999
e 686 999
e 687 910
e 687 839
e 687 981
e 688 932
e 688 829
e 689 694
e 689 995
e 692 885
e 693 971
e 694 756
e 694 725
e 697 999
e 697 717
e 697 750
e 698 911
e 698 862
e 699 961
e 699 719
e 700 990
e 703 879
e 707 835
e 708 748
e 708 971
e 708 716
e 709 768
e 709 825
e 711 934
e 711 941
e 712 864
e 714 755
e 716 948
e 716 864
e 718 953
e 719 984
e 719 904
e 722 969
e 723 751
e 723 811
e 723 786
e 725 751
e 729 736
e 730 999
e 733 798
e 733 988
e 734 917
e 735 779
e 735 857
e 736 936
e 739 909
e 739 749
e 739 956
e 741 974
e 741 856
e 741 938
e 743 759
e 748 821
e 748 942
e 748 993
e 749 793
e 749 923
e 749 979
e 750 907
e 753 845
e 754 922
e 755 830
e 756 980
e 757 762
e 757 939
e 758 863
e 759 782
e 764 927
e 768 894
e 769 979
e 770 878
e 770 996
e 771 831
e 775 796
e 776 852
e 777 912
e 778 862
e 779 812
e 781 804
e 781 935
e 781 895
e 782 839
e 782 927
e 784 972
e 789 834
e 789 838
e 791 806
e 791 963
e 794 965
e 794 955
e 796 935
e 798 902
e 799 950
e 799 886
e 800 953
e 801 990
e 803 965
e 804 936
e 806 998
e 809 942
e 811 972
e 812 984
e 815 963
e 817 962
e 819 846
e 820 874
e 820 998
e 821 930
e 822 895
e 825 857
e 825 876
e 826 956
e 827 978
e 827 853
e 829 951
e 830 907
e 831 923
e 831 846
e 831 921
e 831 973
e 831 955
e 832 963
e 833 846
e 833 994
e 834 864
e 834 865
e 835 872
e 836 866
e 836 950
e 843 871
e 843 981
e 844 951
e 844 967
e 848 909
e 848 888
e 849 916
e 849 856
e 850 873
e 853 909
e 853 859
e 857 863
e 857 958
e 858 910
e 859 862
e 859 885
e 860 868
e 862 996
e 862 960
e 863 957
e 863 948
e 864 972
e 864 950
e 868 876
e 873 952
e 875 981
e 876 950
e 877 948
e 878 973
e 885 925
e 891 999
e 891 952
e 894 967
e 896 908
e 899 988
e 899 982
e 904 943
e 909 912
e 910 999
e 910 934
e 910 916
e 910 996
e 910 918
e 912 979
e 921 951
e 921 962
e 921 986
e 922 929
e 925 997
e 938 956
e 939 967
e 957 973
e 967 972
e 973 998
