txt_Ins/graph-1000-597.txt
n 1000
e 0 618
e 0 983
e 0 963
e 1 682
e 1 754
e 1 878
e 1 283
e 1 135
e 1 616
e 1 362
e 1 661
e 4 239
e 4 827
e 4 759
e 5 973
e 5 239
e 5 49
e 6 652
e 6 567
e 6 245
e 6 31
e 7 319
e 7 525
e 7 905
e 7 322
e 9 359
e 9 91
e 9 466
e 9 936
e 10 224
e 10 352
e 10 382
e 11 382
e 11 703
e 11 857
e 11 726
e 11 688
e 11 653
e 12 451
e 12 715
e 12 990
e 13 265
e 13 73
e 13 274
e 13 325
e 14 353
e 14 941
e 14 854
e 14 402
e 14 371
e 16 412
e 16 502
e 16 302
e 16 457
e 17 715
e 17 406
e 17 383
e 17 134
e 18 736
e 18 940
e 18 529
e 19 141
e 19 267
e 19 278
e 19 72
e 21 179
e 21 462
e 21 419
e 21 691
e 21 380
e 21 68
e 21 160
e 21 912
e 23 239
e 23 459
e 23 512
e 23 130
e 23 420
e 23 354
e 23 916
e 23 166
e 25 583
e 25 329
e 25 179
e 25 907
e 25 383
e 29 799
e 29 516
e 29 892
e 29 259
e 29 862
e 29 104
e 29 744
e 30 900
e 30 756
e 30 253
e 30 60
e 30 457
e 31 370
e 31 885
e 31 140
e 31 178
e 32 337
e 32 282
e 32 818
e 34 423
e 34 370
e 34 674
e 34 153
e 34 375
e 35 886
e 35 139
e 35 870
e 35 523
e 35 506
e 36 491
e 36 602
e 36 693
e 36 637
e 37 498
e 37 524
e 37 387
e 37 623
e 39 367
e 39 242
e 39 992
e 39 302
e 39 226
e 41 822
e 41 231
e 41 606
e 42 271
e 42 582
e 42 691
e 42 532
e 44 244
e 44 215
e 44 89
e 44 752
e 44 337
e 44 209
e 44 509
e 44 811
e 44 366
e 44 900
e 46 250
e 46 535
e 46 170
e 46 160
e 47 131
e 47 437
e 47 820
e 47 164
e 48 71
e 48 981
e 48 336
e 48 629
e 48 259
e 48 607
e 49 90
e 49 340
e 49 620
e 49 872
e 49 611
e 49 713
e 49 740
e 50 434
e 50 701
e 50 645
e 51 372
e 51 321
e 51 578
e 51 704
e 52 930
e 52 752
e 52 992
e 52 517
e 52 993
e 52 145
e 53 650
e 53 647
e 53 222
e 54 287
e 54 790
e 54 929
e 54 264
e 54 155
e 55 78
e 55 267
e 55 262
e 55 534
e 55 88
e 55 575
e 55 340
e 55 825
e 56 581
e 56 428
e 56 245
e 57 936
e 57 62
e 57 951
e 57 180
e 57 74
e 58 120
e 58 138
e 58 515
e 58 685
e 58 496
e 58 827
e 58 387
e 60 732
e 60 601
e 60 130
e 60 770
e 62 819
e 62 631
e 62 620
e 62 789
e 62 875
e 63 223
e 63 568
e 63 753
e 63 612
e 63 529
e 63 337
e 63 710
e 63 832
e 64 320
e 64 756
e 64 804
e 64 295
e 64 304
e 65 194
e 65 845
e 65 350
e 65 945
e 65 70
e 65 75
e 65 486
e 66 351
e 66 628
e 66 859
e 66 786
e 66 477
e 68 747
e 68 315
e 68 248
e 68 180
e 68 742
e 68 972
e 68 177
e 68 902
e 69 133
e 69 702
e 69 827
e 70 556
e 70 642
e 70 100
e 70 954
e 71 796
e 71 162
e 71 932
e 72 129
e 72 235
e 72 214
e 72 79
e 73 365
e 73 196
e 73 861
e 74 757
e 74 636
e 74 799
e 74 824
e 74 81
e 75 507
e 75 797
e 75 363
e 75 268
e 75 84
e 75 521
e 76 428
e 76 520
e 76 260
e 76 597
e 78 901
e 78 575
e 78 359
e 78 997
e 78 108
e 79 808
e 79 892
e 79 939
e 79 217
e 79 785
e 80 359
e 80 930
e 80 287
e 80 223
e 80 634
e 81 837
e 81 790
e 81 901
e 81 413
e 81 463
e 81 941
e 81 629
e 81 87
e 82 749
e 82 175
e 82 484
e 83 962
e 83 507
e 83 686
e 83 769
e 83 787
e 83 407
e 84 114
e 84 512
e 84 453
e 84 167
e 84 498
e 85 535
e 85 807
e 85 678
e 85 145
e 85 182
e 85 628
e 85 404
e 86 383
e 86 448
e 86 679
e 86 274
e 87 191
e 87 570
e 87 445
e 87 924
e 87 297
e 88 200
e 88 645
e 88 986
e 88 898
e 89 118
e 89 190
e 89 369
e 89 576
e 89 575
e 90 372
e 90 133
e 91 923
e 91 377
e 91 100
e 91 616
e 91 789
e 91 492
e 92 992
e 92 101
e 92 99
e 95 176
e 95 424
e 95 246
e 95 185
e 99 843
e 99 552
e 99 169
e 99 726
e 100 835
e 100 959
e 101 906
e 101 433
e 101 777
e 102 620
e 102 490
e 102 237
e 102 114
e 103 923
e 103 682
e 103 532
e 104 576
e 104 978
e 104 825
e 104 876
e 104 239
e 104 298
e 106 308
e 106 824
e 106 496
e 107 777
e 107 160
e 107 672
e 108 353
e 108 113
e 109 180
e 109 501
e 109 526
e 109 341
e 109 948
e 109 464
e 109 740
e 109 485
e 113 373
e 113 980
e 113 688
e 113 226
e 113 569
e 114 134
e 114 342
e 115 201
e 115 542
e 115 315
e 115 835
e 116 968
e 116 433
e 116 572
e 116 678
e 116 642
e 116 804
e 118 269
e 118 699
e 118 489
e 118 314
e 120 178
e 120 921
e 120 926
e 122 440
e 122 300
e 122 759
e 122 260
e 122 726
e 122 803
e 124 520
e 124 703
e 124 827
e 124 628
e 124 764
e 127 509
e 127 851
e 127 600
e 128 183
e 128 312
e 128 388
e 128 997
e 129 530
e 129 570
e 129 282
e 129 567
e 129 139
e 129 263
e 130 451
e 130 510
e 130 291
e 130 369
e 130 960
e 130 162
e 131 996
e 131 588
e 131 484
e 131 720
e 132 513
e 132 356
e 132 886
e 132 321
e 133 752
e 133 702
e 133 256
e 133 986
e 134 559
e 134 886
e 134 830
e 134 574
e 135 385
e 135 822
e 135 714
e 135 640
e 137 386
e 137 238
e 137 344
e 137 376
e 137 413
e 138 377
e 138 828
e 138 506
e 138 753
e 139 314
e 140 452
e 140 420
e 140 826
e 141 722
e 141 616
e 141 735
e 141 757
e 145 926
e 145 219
e 145 857
e 145 804
e 145 149
e 146 528
e 146 501
e 146 375
e 146 373
e 146 792
e 146 922
e 147 598
e 147 396
e 147 720
e 148 335
e 148 672
e 148 637
e 148 342
e 148 167
e 148 978
e 149 257
e 149 573
e 150 564
e 150 181
e 150 734
e 151 979
e 151 870
e 151 495
e 151 292
e 151 845
e 153 443
e 153 989
e 153 917
e 153 960
e 155 754
e 155 350
e 157 722
e 157 590
e 157 929
e 157 703
e 158 446
e 158 979
e 158 612
e 158 164
e 160 470
e 160 733
e 161 531
e 161 893
e 161 910
e 161 596
e 162 507
e 162 325
e 162 591
e 164 927
e 164 759
e 164 258
e 165 740
e 165 179
e 165 926
e 166 451
e 166 341
e 166 696
e 166 364
e 166 682
e 167 302
e 167 815
e 168 901
e 168 831
e 168 908
e 168 790
e 168 777
e 168 789
e 169 855
e 169 342
e 169 439
e 170 634
e 170 635
e 171 740
e 171 545
e 171 262
e 171 400
e 171 708
e 173 629
e 173 905
e 173 739
e 173 885
e 173 704
e 174 589
e 174 320
e 174 506
e 175 397
e 175 830
e 176 200
e 176 694
e 177 510
e 177 955
e 177 592
e 177 964
e 178 838
e 178 407
e 178 276
e 179 817
e 179 643
e 179 411
e 180 419
e 180 424
e 180 195
e 181 377
e 181 892
e 182 736
e 182 324
e 182 862
e 183 643
e 183 203
e 185 594
e 185 774
e 185 569
e 185 463
e 185 740
e 185 428
e 185 257
e 185 470
e 186 473
e 186 871
e 186 256
e 186 679
e 186 739
e 187 593
e 187 634
e 187 453
e 187 259
e 188 200
e 188 915
e 188 298
e 188 248
e 188 851
e 190 567
e 190 681
e 191 890
e 191 747
e 193 906
e 193 559
e 193 195
e 193 796
e 194 947
e 194 362
e 194 834
e 194 541
e 195 544
e 195 311
e 196 698
e 196 654
e 196 968
e 196 360
e 196 957
e 198 457
e 198 268
e 198 949
e 198 948
e 198 594
e 198 774
e 200 778
e 200 793
e 200 423
e 201 507
e 201 424
e 201 972
e 202 388
e 202 440
e 202 465
e 203 664
e 203 856
e 203 542
e 203 662
e 203 440
e 203 222
e 203 758
e 204 912
e 204 764
e 204 223
e 206 679
e 206 704
e 206 289
e 207 770
e 207 524
e 207 735
e 209 852
e 209 431
e 209 804
e 209 335
e 214 877
e 214 987
e 215 591
e 215 781
e 217 224
e 217 539
e 218 341
e 218 735
e 218 798
e 219 694
e 219 975
e 220 313
e 220 693
e 220 948
e 220 356
e 221 615
e 221 641
e 221 800
e 221 300
e 221 675
e 221 230
e 222 631
e 222 325
e 223 253
e 224 445
e 224 821
e 224 964
e 224 505
e 224 681
e 224 775
e 226 871
e 226 934
e 226 609
e 226 542
e 226 460
e 227 588
e 227 796
e 227 993
e 227 466
e 227 271
e 228 443
e 228 902
e 228 975
e 228 466
e 228 434
e 228 321
e 228 786
e 228 933
e 230 412
e 230 864
e 231 393
e 231 687
e 233 487
e 233 711
e 233 830
e 235 516
e 235 744
e 235 939
e 235 883
e 235 406
e 235 297
e 236 775
e 236 528
e 236 832
e 237 393
e 237 945
e 237 304
e 238 785
e 238 937
e 239 411
e 239 248
e 239 350
e 242 793
e 242 930
e 242 278
e 244 920
e 244 867
e 244 259
e 244 410
e 244 358
e 244 489
e 245 425
e 245 352
e 245 646
e 246 982
e 246 711
e 248 740
e 248 671
e 248 326
e 249 522
e 249 453
e 249 269
e 249 554
e 249 402
e 250 422
e 250 545
e 250 456
e 250 931
e 253 883
e 253 951
e 253 432
e 253 926
e 255 578
e 255 484
e 255 541
e 255 563
e 255 639
e 255 412
e 255 942
e 256 935
e 256 671
e 257 940
e 257 334
e 257 521
e 257 985
e 258 826
e 258 485
e 258 769
e 258 628
e 258 394
e 259 947
e 259 706
e 259 420
e 260 481
e 260 552
e 260 494
e 260 788
e 260 320
e 261 911
e 261 491
e 261 736
e 262 706
e 262 995
e 262 421
e 262 334
e 263 768
e 263 787
e 264 994
e 264 513
e 264 404
e 265 938
e 265 861
e 265 582
e 265 421
e 266 406
e 266 987
e 266 316
e 266 848
e 267 683
e 267 792
e 267 703
e 268 633
e 268 856
e 268 717
e 268 936
e 269 618
e 269 757
e 269 949
e 270 759
e 270 397
e 270 671
e 270 627
e 271 956
e 271 679
e 273 552
e 273 445
e 273 721
e 273 781
e 274 806
e 274 977
e 276 584
e 276 456
e 276 776
e 277 539
e 277 337
e 277 684
e 278 968
e 278 532
e 278 821
e 278 424
e 278 588
e 281 947
e 281 934
e 281 833
e 282 707
e 282 792
e 283 293
e 283 287
e 283 840
e 283 758
e 283 744
e 284 479
e 284 469
e 284 797
e 284 614
e 285 416
e 285 937
e 285 629
e 287 346
e 287 786
e 287 632
e 287 524
e 289 857
e 289 895
e 291 383
e 291 435
e 291 698
e 292 588
e 292 859
e 292 677
e 292 674
e 293 359
e 293 662
e 293 634
e 293 348
e 293 358
e 293 369
e 294 934
e 294 950
e 294 346
e 295 664
e 295 641
e 295 402
e 295 299
e 295 654
e 295 579
e 297 806
e 297 580
e 298 387
e 298 911
e 298 600
e 299 863
e 299 626
e 300 776
e 300 473
e 302 993
e 302 398
e 302 579
e 304 419
e 304 877
e 304 800
e 308 756
e 308 763
e 308 898
e 308 862
e 309 861
e 309 456
e 309 987
e 310 522
e 310 571
e 310 602
e 310 327
e 310 583
e 310 512
e 310 905
e 311 717
e 311 871
e 311 770
e 311 865
e 311 354
e 312 887
e 312 586
e 312 531
e 312 342
e 312 921
e 313 963
e 313 330
e 313 953
e 313 740
e 314 816
e 314 421
e 315 552
e 316 584
e 316 729
e 316 573
e 316 342
e 319 728
e 319 526
e 319 324
e 320 803
e 320 590
e 320 804
e 320 501
e 321 858
e 321 433
e 321 571
e 321 945
e 321 356
e 321 891
e 322 352
e 322 365
e 322 903
e 322 837
e 322 783
e 323 853
e 323 732
e 323 980
e 324 901
e 325 535
e 325 964
e 325 525
e 325 381
e 325 614
e 325 337
e 325 827
e 326 536
e 326 461
e 326 844
e 327 982
e 327 456
e 327 358
e 329 937
e 329 942
e 329 827
e 330 540
e 330 895
e 330 626
e 334 372
e 335 559
e 335 642
e 335 907
e 335 922
e 336 420
e 336 481
e 336 875
e 336 877
e 336 993
e 337 457
e 337 788
e 337 512
e 338 632
e 338 865
e 338 962
e 339 642
e 339 873
e 339 477
e 339 805
e 340 437
e 341 777
e 341 800
e 341 938
e 341 744
e 341 539
e 341 888
e 342 952
e 342 364
e 342 831
e 342 756
e 343 674
e 343 854
e 343 524
e 343 569
e 343 535
e 343 586
e 344 642
e 344 514
e 344 953
e 344 559
e 344 998
e 344 672
e 346 548
e 346 701
e 346 807
e 348 982
e 348 601
e 349 382
e 349 470
e 349 926
e 350 379
e 350 777
e 350 660
e 351 932
e 351 891
e 353 945
e 353 639
e 353 573
e 353 572
e 354 927
e 354 824
e 356 605
e 356 876
e 356 936
e 358 647
e 358 826
e 358 728
e 359 895
e 359 394
e 359 972
e 360 685
e 360 477
e 362 776
e 362 612
e 362 548
e 362 819
e 362 524
e 363 854
e 363 608
e 364 793
e 364 963
e 364 752
e 364 962
e 364 650
e 365 733
e 365 571
e 365 413
e 365 526
e 366 536
e 366 878
e 367 790
e 367 664
e 368 848
e 368 605
e 368 790
e 368 718
e 368 763
e 369 439
e 369 530
e 369 464
e 370 457
e 370 628
e 370 686
e 371 838
e 371 990
e 371 537
e 371 711
e 372 757
e 372 749
e 372 955
e 373 950
e 374 702
e 374 886
e 374 564
e 375 542
e 375 608
e 375 761
e 376 853
e 376 805
e 376 864
e 376 966
e 377 590
e 377 703
e 379 692
e 379 642
e 380 957
e 380 694
e 380 381
e 380 871
e 381 713
e 381 797
e 382 639
e 382 636
e 383 688
e 383 481
e 385 718
e 385 442
e 385 740
e 386 953
e 386 679
e 386 778
e 387 856
e 387 822
e 388 452
e 388 628
e 389 411
e 389 687
e 389 445
e 389 838
e 389 460
e 390 544
e 390 702
e 390 901
e 392 931
e 392 754
e 392 945
e 392 557
e 392 828
e 392 876
e 392 975
e 392 878
e 393 632
e 393 580
e 393 647
e 393 916
e 393 484
e 393 397
e 394 679
e 394 505
e 395 806
e 395 681
e 395 894
e 395 753
e 395 793
e 395 602
e 396 775
e 396 424
e 396 525
e 397 608
e 397 433
e 397 642
e 398 601
e 398 710
e 398 592
e 400 542
e 400 951
e 400 778
e 402 545
e 404 608
e 404 605
e 404 575
e 404 912
e 406 818
e 406 686
e 406 523
e 406 856
e 406 509
e 407 792
e 410 932
e 410 411
e 411 940
e 412 816
e 412 912
e 412 414
e 413 605
e 413 654
e 414 770
e 414 923
e 414 867
e 414 701
e 415 443
e 415 973
e 415 903
e 416 842
e 416 591
e 419 759
e 419 699
e 419 768
e 419 686
e 420 968
e 420 592
e 420 960
e 420 788
e 421 749
e 421 502
e 422 875
e 422 494
e 422 954
e 422 557
e 423 432
e 423 855
e 423 875
e 423 473
e 424 548
e 424 965
e 425 694
e 425 726
e 427 964
e 427 933
e 427 808
e 427 681
e 427 870
e 428 643
e 431 558
e 431 464
e 432 932
e 432 810
e 433 664
e 433 522
e 433 718
e 433 989
e 433 704
e 434 777
e 434 646
e 435 715
e 435 807
e 435 539
e 437 763
e 437 721
e 439 764
e 439 934
e 439 627
e 440 820
e 440 580
e 440 469
e 440 901
e 442 800
e 442 489
e 442 679
e 443 965
e 443 853
e 443 803
e 445 532
e 445 876
e 445 620
e 446 581
e 446 933
e 446 457
e 448 717
e 448 928
e 451 930
e 451 664
e 451 954
e 451 475
e 451 811
e 452 818
e 453 456
e 453 996
e 456 479
e 456 717
e 457 554
e 457 552
e 457 487
e 457 947
e 457 908
e 459 993
e 459 571
e 460 540
e 460 686
e 460 849
e 461 829
e 461 948
e 461 524
e 462 776
e 462 507
e 463 671
e 463 872
e 464 601
e 465 567
e 465 716
e 465 931
e 466 507
e 466 542
e 466 931
e 466 874
e 466 764
e 466 477
e 466 799
e 469 928
e 470 521
e 473 829
e 473 683
e 473 475
e 473 486
e 475 650
e 477 738
e 477 644
e 479 872
e 479 653
e 479 783
e 481 887
e 481 540
e 481 963
e 483 697
e 483 669
e 483 825
e 484 596
e 484 906
e 484 819
e 485 885
e 485 884
e 485 802
e 485 764
e 486 939
e 486 498
e 486 495
e 487 938
e 487 952
e 489 793
e 490 714
e 490 697
e 490 641
e 490 529
e 491 548
e 491 912
e 491 798
e 491 862
e 492 921
e 492 803
e 492 734
e 494 756
e 494 848
e 494 582
e 495 775
e 495 575
e 496 989
e 496 704
e 498 700
e 498 985
e 501 900
e 501 871
e 501 983
e 502 539
e 502 584
e 502 947
e 505 618
e 505 596
e 506 842
e 506 729
e 506 873
e 507 848
e 507 681
e 507 631
e 507 954
e 507 510
e 509 631
e 509 514
e 509 652
e 509 783
e 509 996
e 513 623
e 513 995
e 514 908
e 514 998
e 514 669
e 515 830
e 515 646
e 515 951
e 516 738
e 516 616
e 516 829
e 516 817
e 516 558
e 517 865
e 517 589
e 518 932
e 518 994
e 518 867
e 519 792
e 519 814
e 519 747
e 520 789
e 520 525
e 521 715
e 522 616
e 523 781
e 523 708
e 523 788
e 523 640
e 524 580
e 524 814
e 524 611
e 525 891
e 525 970
e 526 615
e 526 744
e 528 546
e 528 582
e 528 717
e 529 838
e 529 700
e 530 851
e 530 589
e 530 924
e 531 609
e 531 826
e 531 678
e 531 764
e 531 842
e 531 644
e 532 959
e 532 598
e 534 965
e 534 856
e 535 817
e 535 576
e 536 854
e 537 788
e 537 891
e 539 842
e 539 778
e 539 761
e 539 833
e 541 951
e 541 568
e 541 887
e 542 825
e 542 596
e 542 861
e 542 609
e 544 664
e 544 632
e 545 905
e 545 885
e 546 800
e 546 792
e 547 934
e 547 781
e 547 963
e 547 843
e 548 808
e 554 714
e 554 683
e 554 720
e 556 830
e 556 840
e 556 802
e 557 793
e 557 598
e 558 888
e 563 781
e 563 883
e 564 924
e 564 940
e 564 938
e 564 597
e 567 910
e 567 858
e 568 990
e 568 924
e 569 967
e 569 800
e 570 828
e 570 574
e 570 583
e 571 954
e 571 806
e 571 970
e 571 949
e 571 713
e 572 682
e 573 763
e 574 824
e 575 874
e 576 783
e 578 961
e 578 849
e 579 967
e 579 995
e 579 588
e 579 924
e 580 646
e 581 763
e 582 971
e 585 669
e 585 884
e 585 769
e 586 986
e 588 729
e 588 971
e 588 803
e 589 684
e 590 716
e 591 721
e 591 764
e 591 890
e 591 601
e 593 603
e 593 861
e 594 945
e 594 981
e 596 775
e 597 908
e 597 698
e 597 614
e 598 601
e 598 815
e 600 643
e 601 855
e 601 692
e 602 674
e 602 726
e 603 990
e 603 851
e 605 693
e 605 884
e 606 797
e 606 739
e 606 670
e 607 920
e 607 643
e 608 871
e 608 632
e 608 830
e 608 886
e 611 947
e 612 768
e 612 756
e 612 874
e 615 808
e 616 977
e 616 693
e 616 703
e 616 986
e 616 847
e 618 644
e 618 767
e 620 750
e 620 909
e 623 787
e 623 838
e 626 646
e 626 887
e 627 819
e 629 648
e 632 834
e 633 968
e 633 816
e 633 777
e 633 993
e 634 806
e 634 700
e 635 888
e 635 718
e 636 857
e 636 724
e 637 654
e 637 898
e 637 855
e 640 922
e 640 688
e 641 927
e 641 805
e 642 778
e 643 937
e 643 742
e 644 878
e 644 935
e 645 781
e 645 977
e 645 937
e 648 865
e 648 949
e 650 916
e 651 912
e 651 922
e 651 948
e 651 844
e 652 706
e 652 822
e 653 781
e 654 793
e 654 715
e 654 707
e 660 851
e 660 795
e 661 917
e 661 864
e 661 985
e 662 755
e 664 959
e 669 883
e 669 967
e 669 885
e 670 855
e 670 692
e 670 980
e 671 886
e 672 892
e 672 862
e 674 845
e 675 829
e 675 805
e 675 902
e 677 790
e 677 691
e 678 804
e 678 939
e 678 815
e 679 840
e 679 682
e 683 952
e 684 998
e 685 998
e 686 909
e 686 838
e 686 980
e 687 931
e 687 828
e 688 693
e 688 994
e 691 884
e 692 970
e 693 755
e 693 724
e 696 998
e 696 716
e 696 749
e 697 910
e 697 861
e 698 960
e 698 718
e 699 989
e 702 878
e 706 834
e 707 747
e 707 970
e 707 715
e 708 767
e 708 824
e 710 933
e 710 940
e 711 863
e 713 754
e 715 947
e 715 863
e 717 952
e 718 983
e 718 903
e 721 968
e 722 750
e 722 810
e 722 785
e 724 750
e 728 735
e 729 998
e 732 797
e 732 987
e 733 916
e 734 778
e 734 856
e 735 935
e 738 908
e 738 748
e 738 955
e 740 973
e 740 855
e 740 937
e 742 758
e 747 820
e 747 941
e 747 992
e 748 792
e 748 922
e 748 978
e 749 906
e 752 844
e 753 921
e 754 829
e 755 979
e 756 761
e 756 938
e 757 862
e 758 781
e 763 926
e 767 893
e 768 978
e 769 877
e 769 995
e 770 830
e 774 795
e 775 851
e 776 911
e 777 861
e 778 811
e 780 803
e 780 934
e 780 894
e 781 838
e 781 926
e 783 971
e 788 833
e 788 837
e 790 805
e 790 962
e 793 964
e 793 954
e 795 934
e 797 901
e 798 949
e 798 885
e 799 952
e 800 989
e 802 964
e 803 935
e 805 997
e 808 941
e 810 971
e 811 983
e 814 962
e 816 961
e 818 845
e 819 873
e 819 997
e 820 929
e 821 894
e 824 856
e 824 875
e 825 955
e 826 977
e 826 852
e 828 950
e 829 906
e 830 922
e 830 845
e 830 920
e 830 972
e 830 954
e 831 962
e 832 845
e 832 993
e 833 863
e 833 864
e 834 871
e 835 865
e 835 949
e 842 870
e 842 980
e 843 950
e 843 966
e 847 908
e 847 887
e 848 915
e 848 855
e 849 872
e 852 908
e 852 858
e 856 862
e 856 957
e 857 909
e 858 861
e 858 884
e 859 867
e 861 995
e 861 959
e 862 956
e 862 947
e 863 971
e 863 949
e 867 875
e 872 951
e 874 980
e 875 949
e 876 947
e 877 972
e 884 924
e 890 998
e 890 951
e 893 966
e 895 907
e 898 987
e 898 981
e 903 942
e 908 911
e 909 998
e 909 933
e 909 915
e 909 995
e 909 917
e 911 978
e 920 950
e 920 961
e 920 985
e 921 928
e 924 996
e 937 955
e 938 966
e 956 972
e 966 971
e 972 997
